# ------------------------------------------------------------
# Copyright (C) 2026 Marcos Bujosa
# Licencia: GNU General Public License v3.0 o posterior
# Este código es software libre y puede ser redistribuido y/o modificado bajo los términos de la GPL.
# Ver el archivo LICENSE del repositorio para más detalles.
# ------------------------------------------------------------

# Los dos primeros comandos son necesarios para que Gretl guarde los resultados de la práctica en el directorio de trabajo
# al ejecutar lo siguiente desde un terminal (use los nombres y ruta que correspondan)
#
#    DIRECTORIO="Nombre_Directorio_trabajo" gretlcli -b ruta/nombre_fichero_de_la_practica.inp
#
# Si esto no le funciona en su sistema, comente las siguientes dos líneas y sitúese en el directorio de trabajo de gretl
# que corresponda (configure dicho directorio de trabajo desde la ventana principal de Gretl).

string directory = getenv("DIRECTORIO")
set workdir "@directory"

open hprice2.gdt --quiet
setinfo price -d "Precio mediano de la vivienda ($)" -n "Precio ($)"
setinfo rooms -d "Número medio de habitaciones" -n "Habitaciones"
setinfo nox -d "Concentración de óxidos de nitrógeno" -n "Contaminación (NOx)"

outfile --quiet olsPriceRooms.txt
    ols price const rooms
end outfile

outfile --quiet olsPriceNox.txt
    ols price const nox
end outfile

outfile --quiet ortogonalidadAmbosModelos.txt
    ols price const rooms --quiet
    series ehat_rooms = $uhat
    scalar sum_e_rooms  = sum(ehat_rooms)
    scalar sum_xe_rooms = sum(rooms*ehat_rooms)
    
    ols price const nox --quiet
    series ehat_nox = $uhat
    scalar sum_e_nox  = sum(ehat_nox)
    scalar sum_xe_nox = sum(nox*ehat_nox)
    
    printf "Modelo price~rooms:  suma(ehat) = %.8f    suma(rooms*ehat) = %.8f\n", sum_e_rooms, sum_xe_rooms
    printf "Modelo price~nox  :  suma(ehat) = %.8f    suma(nox*ehat)   = %.8f\n", sum_e_nox,  sum_xe_nox
end outfile

outfile --quiet bondadDeAjusteAmbosModelos.txt
    ols price const rooms --quiet
    scalar mu_price = mean(price)
    scalar STC_r = sum((price-mu_price)^2)
    scalar SRC_r = sum($uhat^2)
    scalar SEC_r = STC_r - SRC_r
    scalar R2_r_manual = SEC_r/STC_r
    
    ols price const nox --quiet
    scalar STC_n = sum((price-mu_price)^2)
    scalar SRC_n = sum($uhat^2)
    scalar SEC_n = STC_n - SRC_n
    scalar R2_n_manual = SEC_n/STC_n
    
    printf "price~rooms:  STC=%.2f  SEC=%.2f  SRC=%.2f   R2(a mano)=%.4f\n", STC_r, SEC_r, SRC_r, R2_r_manual
    printf "price~nox  :  STC=%.2f  SEC=%.2f  SRC=%.2f   R2(a mano)=%.4f\n", STC_n, SEC_n, SRC_n, R2_n_manual
    
    printf "\nComparacion con rho^2 (recuerde: en regresion simple R2 = rho_xy^2):\n"
    printf "corr(price,rooms)^2 = %.4f\n", corr(price,rooms)^2
    printf "corr(price,nox)^2   = %.4f\n", corr(price,nox)^2
end outfile

outfile --quiet anguloTheta.txt
    printf "price~rooms:  R2 = %.4f   ->   theta = %.2f grados\n", R2_r_manual, acos(sqrt(R2_r_manual))*180/$pi
    printf "price~nox  :  R2 = %.4f   ->   theta = %.2f grados\n", R2_n_manual, acos(sqrt(R2_n_manual))*180/$pi
end outfile

gnuplot price rooms --output="price_rooms_fit.png"
gnuplot price nox   --output="price_nox_fit.png"

outfile --quiet intercambiarPapeles.txt
    ols price const rooms --quiet
    scalar b_pr  = $coeff(rooms)
    scalar r2_pr = $rsq
    
    ols rooms const price --quiet             # los papeles, intercambiados
    scalar b_rp  = $coeff(price)
    scalar r2_rp = $rsq
    
    printf "R2 de price~rooms = %.6f      R2 de rooms~price = %.6f\n", r2_pr, r2_rp
    printf "pendiente de price~rooms = %.4f     pendiente de rooms~price = %.8f\n", b_pr, b_rp
    printf "inversa de la primera pendiente = %.8f   (no es la segunda)\n", 1/b_pr
    printf "producto de las dos pendientes  = %.6f   (= R2 = rho^2)\n", b_pr*b_rp
end outfile
