# ------------------------------------------------------------
# Copyright (C) 2026 Marcos Bujosa
# Licencia: GNU General Public License v3.0 o posterior
# Este código es software libre y puede ser redistribuido y/o modificado bajo los términos de la GPL.
# Ver el archivo LICENSE del repositorio para más detalles.
# ------------------------------------------------------------

# Los dos primeros comandos son necesarios para que Gretl guarde los resultados de la práctica en el directorio de trabajo
# al ejecutar lo siguiente desde un terminal (use los nombres y ruta que correspondan)
#
#    DIRECTORIO="Nombre_Directorio_trabajo" gretlcli -b ruta/nombre_fichero_de_la_practica.inp
#
# Si esto no le funciona en su sistema, comente las siguientes dos líneas y sitúese en el directorio de trabajo de gretl
# que corresponda (configure dicho directorio de trabajo desde la ventana principal de Gretl).

string directory = getenv("DIRECTORIO")
set workdir "@directory"

open data4-1.gdt --quiet

setinfo price -d "Precio de la vivienda (miles de dólares)" -n "Precio (miles $)"
setinfo sqft   -d "Superficie habitable (pies cuadrados)" -n "Superficie (sqft)"
setinfo bedrms -d "Número de dormitorios" -n "Dormitorios"
setinfo baths  -d "Número de cuartos de baño" -n "Baños"

summary price sqft bedrms baths --simple

outfile --quiet vistazoDatos.txt
    print price sqft bedrms baths --byobs
end outfile

outfile --quiet OLS_Precio_Superficie.txt
    ols price const sqft
end outfile

gnuplot price sqft --output="price_sqft_simple.png"

ols price const bedrms
ols price const sqft bedrms

corr sqft bedrms

ols price const sqft bedrms baths

corr sqft bedrms baths

outfile --quiet sintesisR2.txt
    ols price const sqft --quiet
    scalar r2_1 = $rsq
    ols price const bedrms --quiet
    scalar r2_2 = $rsq
    ols price const sqft bedrms --quiet
    scalar r2_3 = $rsq
    ols price const sqft bedrms baths --quiet
    scalar r2_4 = $rsq
    
    printf "R2 price~sqft               = %.4f\n", r2_1
    printf "R2 price~bedrms             = %.4f\n", r2_2
    printf "R2 price~sqft+bedrms        = %.4f\n", r2_3
    printf "R2 price~sqft+bedrms+baths  = %.4f\n", r2_4
end outfile

smpl full                       # las 14 viviendas
ols price const sqft --quiet
scalar a_todas = $coeff(const)
scalar b_todas = $coeff(sqft)
series resid   = $uhat          # distancia de cada vivienda a la recta
scalar media_sqft = mean(sqft)

smpl full
smpl obs != 1 --restrict --quiet    # fuera la vivienda 1: la MAS PEQUEÑA
ols price const sqft --quiet
scalar a_s1 = $coeff(const)
scalar b_s1 = $coeff(sqft)

smpl full
smpl obs != 12 --restrict --quiet   # fuera la 12: NO es extrema en tamaño
ols price const sqft --quiet
scalar a_s12 = $coeff(const)
scalar b_s12 = $coeff(sqft)

smpl full
smpl obs != 14 --restrict --quiet   # fuera la 14: la MAS GRANDE
ols price const sqft --quiet
scalar a_s14 = $coeff(const)
scalar b_s14 = $coeff(sqft)

smpl full                       # recuperamos siempre la muestra completa
outfile --quiet submuestras.txt
    printf "media de sqft en las 14 viviendas = %.1f\n\n", media_sqft
    printf "se quita         sqft   residuo    constante   pendiente\n"
    printf "-----------------------------------------------------------\n"
    printf "nadie (n=14)        -         -   %10.3f  %10.4f\n", a_todas, b_todas
    printf "obs 1 (n=13)     %5.0f  %8.2f   %10.3f  %10.4f\n", sqft[1],  resid[1],  a_s1,  b_s1
    printf "obs 12 (n=13)    %5.0f  %8.2f   %10.3f  %10.4f\n", sqft[12], resid[12], a_s12, b_s12
    printf "obs 14 (n=13)    %5.0f  %8.2f   %10.3f  %10.4f\n", sqft[14], resid[14], a_s14, b_s14
end outfile
