# ------------------------------------------------------------
# Copyright (C) 2026 Marcos Bujosa
# Licencia: GNU General Public License v3.0 o posterior
# Este código es software libre y puede ser redistribuido y/o modificado bajo los términos de la GPL.
# Ver el archivo LICENSE del repositorio para más detalles.
# ------------------------------------------------------------

# Los dos primeros comandos son necesarios para que Gretl guarde los resultados de la práctica en el directorio de trabajo
# al ejecutar lo siguiente desde un terminal (use los nombres y ruta que correspondan)
#
#    DIRECTORIO="Nombre_Directorio_trabajo" gretlcli -b ruta/nombre_fichero_de_la_practica.inp
#
# Si esto no le funciona en su sistema, comente las siguientes dos líneas y sitúese en el directorio de trabajo de gretl
# que corresponda (configure dicho directorio de trabajo desde la ventana principal de Gretl).

string directory = getenv("DIRECTORIO")
set workdir "@directory"

outfile --quiet datosSimulados.txt
    nulldata 40 --preserve
    set seed 97531
    
    series x2 = uniform(0,10)
    series x3 = 0.6*x2 + normal(0,2)
    series u  = normal(0,3)
    
    scalar b1 = 5
    scalar b2 = 2
    scalar b3 = -1
    series y = b1 + b2*x2 + b3*x3 + u
    
    printf "Correlacion entre x2 y x3 = %.4f  (no son ortogonales en desviaciones)\n", corr(x2,x3)
end outfile

outfile --quiet matrizXyEcuacionesNormales.txt
    list Xlist = const x2 x3
    matrix X = { Xlist }
    list ylist = y
    matrix Y = { ylist }
    
    matrix XtX = X'X
    matrix XtY = X'Y
    
    printf "Matriz X'X (3x3):\n"
    print XtX
    printf "\nVector X'y (3x1):\n"
    print XtY
end outfile

outfile --quiet betaMatricialVsOls.txt
    matrix beta_matricial = invpd(XtX)*XtY
    printf "beta calculado como (X'X)^(-1) X'y:\n"
    print beta_matricial
    
    ols y const x2 x3 --quiet
    matrix beta_ols = $coeff
    printf "\nbeta calculado por 'ols' de Gretl:\n"
    print beta_ols
    
    matrix diferencia = beta_matricial - beta_ols
    printf "\nDiferencia (debe ser practicamente cero):\n"
    print diferencia
end outfile

outfile --quiet verificacionXteYeX.txt
    series ehat = $uhat
    list elist = ehat
    matrix E = { elist }
    
    matrix XtE = X'E
    printf "X'e (columna 3x1, debe ser (aprox.) el vector nulo):\n"
    print XtE
    
    matrix eX = E'X
    printf "\ne*X (Gretl lo presenta como fila 1x3; mismos tres numeros):\n"
    print eX
end outfile

outfile --quiet datosFamiliaOrtogonal.txt
    series z2 = x2 - mean(x2)        # centrado: media nula
    ols x3 const z2 --quiet
    series z3 = $uhat                # residuos: ortogonales a 1 y a z2 por construccion
    
    series yo = b1 + b2*z2 + b3*z3 + u   # MISMOS beta, MISMA perturbacion u
    
    printf "media(z2)    = %.10f   (debe ser 0)\n", mean(z2)
    printf "media(z3)    = %.10f   (debe ser 0)\n", mean(z3)
    printf "suma(z2*z3)  = %.10f   (debe ser 0: ortogonalidad mutua)\n", sum(z2*z3)
    printf "corr(z2,z3)  = %.10f   (era 0,5046 entre x2 y x3)\n", corr(z2,z3)
end outfile

outfile --quiet familiaOrtogonalComparacion.txt
    printf "================ CASO GENERAL (Actividad 1) ================\n"
    printf "correlacion entre los regresores = %.4f\n\n", corr(x2,x3)
    ols y const x2 x3 --quiet
    printf "beta2:  conjunto = %10.6f     aislado (cov/var) = %10.6f\n", $coeff(x2), cov(x2,y)/var(x2)
    printf "beta3:  conjunto = %10.6f     aislado (cov/var) = %10.6f\n", $coeff(x3), cov(x3,y)/var(x3)
    printf "R2    : conjunto = %10.6f     suma de rho^2     = %10.6f\n", $rsq, corr(x2,y)^2 + corr(x3,y)^2
    
    printf "\n================ CASO ORTOGONAL (Actividad 4) ==============\n"
    printf "correlacion entre los regresores = %.4f\n\n", corr(z2,z3)
    ols yo const z2 z3 --quiet
    printf "beta2:  conjunto = %10.6f     aislado (cov/var) = %10.6f\n", $coeff(z2), cov(z2,yo)/var(z2)
    printf "beta3:  conjunto = %10.6f     aislado (cov/var) = %10.6f\n", $coeff(z3), cov(z3,yo)/var(z3)
    printf "R2    : conjunto = %10.6f     suma de rho^2     = %10.6f\n", $rsq, corr(z2,yo)^2 + corr(z3,yo)^2
end outfile

outfile --quiet colinealidadExacta.txt
    series C = x2                     # "temperatura" en Celsius
    series F = 32 + 1.8*C             # la misma temperatura, en Fahrenheit
    printf "corr(C, F) = %.10f\n", corr(C, F)
    
    list Xcol = const C F
    matrix Xc = { Xcol }
    printf "determinante de X'X con C y F = %g   (una matriz invertible tiene determinante distinto de cero)\n", det(Xc'Xc)
    
    ols y const C F
end outfile

outfile --quiet coordenadasBaseOrtonormal.txt
    ols y const x2 x3 --quiet
    scalar n = $nobs
    scalar k = 3
    
    series d2  = x2 - mean(x2)
    series b_1 = d2 / sqrt(sum(d2^2))
    series d3  = x3 - mean(x3)
    series e3  = d3 - sum(d3*b_1)*b_1
    series b_2 = e3 / sqrt(sum(e3^2))
    matrix BE  = {b_1} ~ {b_2}
    
    matrix M   = I(n) - ones(n,n)/n
    matrix PR  = M - BE*BE'
    matrix V
    matrix lam = eigensym(PR, &V)
    matrix BR  = selifc(V, (lam .> 0.5)')
    printf "vectores de la base: %d en E, %d en R, total %d = n-1\n", cols(BE), cols(BR), cols(BE)+cols(BR)
    printf "ortonormalidad: max|B'B - I| = %g ; media cero: max|B'1| = %g\n", max(abs(vec((BE~BR)'(BE~BR) - I(n-1)))), max(abs((BE~BR)'ones(n,1)))
    
    matrix v  = {y} - mean(y)
    matrix cE = BE'v
    matrix cR = BR'v
    printf "\ncoordenadas en E: c1 = %.4f, c2 = %.4f\n", cE[1], cE[2]
    printf "primeras coordenadas en R: %.4f, %.4f, %.4f, ...\n", cR[1], cR[2], cR[3]
    
    scalar STC = sum((y - mean(y))^2)
    printf "\nsuma de cuadrados de las coordenadas de E = %10.4f   SEC = %10.4f\n", cE'cE, STC - $ess
    printf "suma de cuadrados de las coordenadas de R = %10.4f   SRC = %10.4f\n", cR'cR, $ess
    printf "suma de todas                             = %10.4f   STC = %10.4f\n", cE'cE + cR'cR, STC
    printf "\n(SEC/(k-1)) / (SRC/(n-k)) = %.4f    F de Gretl = %.4f\n", (cE'cE/(k-1)) / (cR'cR/(n-k)), $Fstat
    printf "c2 / ||parte propia de x3|| = %.6f    beta3 de Gretl = %.6f\n", cE[2]/sqrt(sum(e3^2)), $coeff(x3)
end outfile
