# ------------------------------------------------------------
# Copyright (C) 2026 Marcos Bujosa
# Licencia: GNU General Public License v3.0 o posterior
# Este código es software libre y puede ser redistribuido y/o modificado bajo los términos de la GPL.
# Ver el archivo LICENSE del repositorio para más detalles.
# ------------------------------------------------------------

# Los dos primeros comandos son necesarios para que Gretl guarde los resultados de la práctica en el directorio de trabajo
# al ejecutar lo siguiente desde un terminal (use los nombres y ruta que correspondan)
#
#    DIRECTORIO="Nombre_Directorio_trabajo" gretlcli -b ruta/nombre_fichero_de_la_practica.inp
#
# Si esto no le funciona en su sistema, comente las siguientes dos líneas y sitúese en el directorio de trabajo de gretl
# que corresponda (configure dicho directorio de trabajo desde la ventana principal de Gretl).

string directory = getenv("DIRECTORIO")
set workdir "@directory"

set verbose off

open hprice2.gdt --quiet

ols price const rooms --quiet
scalar b1_true = $coeff(const)          # beta_1 "verdadero"
scalar b2_true = $coeff(rooms)          # beta_2 "verdadero"
scalar sigma   = sqrt($ess/$df)         # sigma "verdadera" (raiz de la cuasivarianza)
scalar n       = $nobs
scalar Sxx     = sum((rooms - mean(rooms))^2)
scalar var_teo = sigma^2 / Sxx          # formula de la leccion 11

outfile --quiet mundoArtificial.txt
    printf "n            = %d\n", n
    printf "beta_1       = %.4f\n", b1_true
    printf "beta_2       = %.4f\n", b2_true
    printf "sigma        = %.4f\n", sigma
    printf "Sxx          = %.4f\n", Sxx
    printf "Var[b2 | X]  = sigma^2/Sxx = %.4f\n", var_teo
    printf "desv. tipica = %.4f\n", sqrt(var_teo)
end outfile

outfile --quiet unaReplica.txt
    set seed 20261030                       # para que el resultado sea reproducible
    
    series u_sim = normal(0, sigma)                    # perturbacion nueva
    series y_sim = b1_true + b2_true*rooms + u_sim     # muestra simulada
    
    ols y_sim const rooms
    printf "\nbeta_2 verdadero  = %.4f\n", b2_true
    printf "beta_2 estimado   = %.4f\n", $coeff(rooms)
    printf "diferencia        = %.4f\n", $coeff(rooms) - b2_true
end outfile

scalar R = 2000                         # numero de replicas

set seed 20261030
loop R --progressive --quiet
    series u    = normal(0, sigma)
    series ysim = b1_true + b2_true*rooms + u
    ols ysim const rooms --quiet
    scalar b1hat = $coeff(const)
    scalar b2hat = $coeff(rooms)
    store "@workdir/replicas.gdt" b1hat b2hat
endloop

outfile --quiet bucle.txt
    printf "Hecho: %d replicas guardadas en replicas.gdt\n", R
end outfile

outfile --quiet analisisReplicas.txt
    printf "=== LO QUE PREDICE LA LECCION 11 ===\n"
    printf "beta_2 verdadero          = %.4f\n", b2_true
    printf "Var[b2 | X] = sigma^2/Sxx = %.4f\n", var_teo
    printf "desviacion tipica         = %.4f\n\n", sqrt(var_teo)
end outfile
open "@workdir/replicas.gdt" --quiet
outfile --quiet --append analisisReplicas.txt
    printf "=== LO QUE SALE DE %d REPLICAS SIMULADAS ===\n", $nobs
    printf "media de b2hat            = %.4f\n", mean(b2hat)
    printf "varianza de b2hat         = %.4f\n", sum((b2hat-mean(b2hat))^2)/$nobs
    printf "desviacion tipica         = %.4f\n", sqrt(sum((b2hat-mean(b2hat))^2)/$nobs)
end outfile

freq b2hat --normal --plot="@workdir/histograma_b2.png"

open hprice2.gdt --quiet                  # recuperamos los regresores
ols price const rooms --quiet
scalar sigma = sqrt($ess/$df)

outfile --quiet matrizVCV.txt
    matrix X      = {const, rooms}
    matrix invXTX = invpd(X'X)
    matrix Vteo   = sigma^2 * invXTX
    printf "Matriz sigma^2 (X'X)^{-1} predicha por la leccion 11:\n"
    print Vteo
end outfile
open "@workdir/replicas.gdt" --quiet
outfile --quiet --append matrizVCV.txt
    matrix B    = {b1hat}~{b2hat}
    matrix Vemp = mcov(B)
    printf "\nMatriz de varianzas y covarianzas EMPIRICA de las replicas:\n"
    print Vemp
end outfile
