# ------------------------------------------------------------
# Copyright (C) 2026 Marcos Bujosa
# Licencia: GNU General Public License v3.0 o posterior
# Este código es software libre y puede ser redistribuido y/o modificado bajo los términos de la GPL.
# Ver el archivo LICENSE del repositorio para más detalles.
# ------------------------------------------------------------

# Los dos primeros comandos son necesarios para que Gretl guarde los resultados de la práctica en el directorio de trabajo
# al ejecutar lo siguiente desde un terminal (use los nombres y ruta que correspondan)
#
#    DIRECTORIO="Nombre_Directorio_trabajo" gretlcli -b ruta/nombre_fichero_de_la_practica.inp
#
# Si esto no le funciona en su sistema, comente las siguientes dos líneas y sitúese en el directorio de trabajo de gretl
# que corresponda (configure dicho directorio de trabajo desde la ventana principal de Gretl).

string directory = getenv("DIRECTORIO")
set workdir "@directory"

set verbose off

nulldata 12
setobs 1 1 --cross-section

series x_c = 47.25 + 0.5*(index - 1)
series y_c = {35.045, 33.025, 34.435, 32.415, 35.365, 35.975, \
              34.655, 34.055, 36.505, 35.925, 35.495, 37.105}'
outfile --quiet concentrado.txt
    ols y_c const x_c
    scalar tc = critical(t, $df, 0.025)
    printf "\n||x - xbar|| = %.4f    s = %.4f    ee = s/||x - xbar|| = %.4f  (Gretl: %.4f)\n", sqrt(sum((x_c-mean(x_c))^2)), $sigma, $sigma/sqrt(sum((x_c-mean(x_c))^2)), $stderr(x_c)
    printf "t = %.2f   (t_c al 5%% = %.3f)\n", $coeff(x_c)/$stderr(x_c), tc
    printf "IC 95%%: [%.2f ; %.2f]\n", $coeff(x_c) - tc*$stderr(x_c), $coeff(x_c) + tc*$stderr(x_c)
end outfile

series x_d = 22.5 + 5*(index - 1)
series y_d = {22.670, 22.900, 26.560, 26.790, 31.990, 34.850, \
              35.780, 37.430, 42.130, 43.800, 45.620, 49.480}'
outfile --quiet disperso.txt
    ols y_d const x_d
    printf "\n||x - xbar|| = %.4f    s = %.4f    ee = s/||x - xbar|| = %.4f  (Gretl: %.4f)\n", sqrt(sum((x_d-mean(x_d))^2)), $sigma, $sigma/sqrt(sum((x_d-mean(x_d))^2)), $stderr(x_d)
    printf "t = %.2f   (t_c al 5%% = %.3f)\n", $coeff(x_d)/$stderr(x_d), tc
    printf "IC 95%%: [%.2f ; %.2f]\n", $coeff(x_d) - tc*$stderr(x_d), $coeff(x_d) + tc*$stderr(x_d)
    series u_c = y_c - 10 - 0.5*x_c        # perturbacion del panel concentrado
    series u_d = y_d - 10 - 0.5*x_d        # perturbacion del panel disperso
    printf "\nmayor diferencia entre las dos series de perturbaciones: %.6f\n", max(abs(u_c - u_d))
end outfile

outfile --quiet contrastes.txt
    ols y_c const x_c --quiet
    scalar t_cierta_c = ($coeff(x_c) - 0.5)/$stderr(x_c)
    scalar t_falsa_c  = ($coeff(x_c) - 0.0)/$stderr(x_c)
    ols y_d const x_d --quiet
    scalar t_cierta_d = ($coeff(x_d) - 0.5)/$stderr(x_d)
    scalar t_falsa_d  = ($coeff(x_d) - 0.0)/$stderr(x_d)
    
    printf "t_c al 5%% con %d grados de libertad = %.3f\n\n", $df, tc
    printf "                        concentrado     disperso\n"
    printf "H0: beta_2 = 0,5 (cierta)   t = %6.2f    t = %6.2f\n", t_cierta_c, t_cierta_d
    printf "H0: beta_2 = 0   (falsa)    t = %6.2f    t = %6.2f\n", t_falsa_c,  t_falsa_d
end outfile

outfile --quiet unidades.txt
    series x_d100 = 100*x_d
    ols y_d const x_d --quiet
    printf "x en unidades originales : coef = %.6f   ee = %.6f   t = %.2f   p = %.3g\n", $coeff(x_d), $stderr(x_d), $coeff(x_d)/$stderr(x_d), 2*pvalue(t, $df, abs($coeff(x_d)/$stderr(x_d)))
    ols y_d const x_d100 --quiet
    printf "x multiplicado por 100   : coef = %.6f   ee = %.6f   t = %.2f   p = %.3g\n", $coeff(x_d100), $stderr(x_d100), $coeff(x_d100)/$stderr(x_d100), 2*pvalue(t, $df, abs($coeff(x_d100)/$stderr(x_d100)))
    printf "R2 en ambos casos        : %.4f\n", $rsq
end outfile
