# ------------------------------------------------------------
# Copyright (C) 2026 Marcos Bujosa
# Licencia: GNU General Public License v3.0 o posterior
# Este código es software libre y puede ser redistribuido y/o modificado bajo los términos de la GPL.
# Ver el archivo LICENSE del repositorio para más detalles.
# ------------------------------------------------------------

# Los dos primeros comandos son necesarios para que Gretl guarde los resultados de la práctica en el directorio de trabajo
# al ejecutar lo siguiente desde un terminal (use los nombres y ruta que correspondan)
#
#    DIRECTORIO="Nombre_Directorio_trabajo" gretlcli -b ruta/nombre_fichero_de_la_practica.inp
#
# Si esto no le funciona en su sistema, comente las siguientes dos líneas y sitúese en el directorio de trabajo de gretl
# que corresponda (configure dicho directorio de trabajo desde la ventana principal de Gretl).

string directory = getenv("DIRECTORIO")
set workdir "@directory"

set verbose off

open hprice2.gdt --quiet

outfile --quiet tabla.txt
    ols price const rooms
end outfile

outfile --quiet reconstruccion.txt
    scalar n   = $nobs
    scalar k   = 2                                   # regresores, constante incluida
    scalar SRC = $ess                                # suma de cuadrados de los residuos
    scalar STC = SRC/(1 - $rsq)                      # Gretl no da STC directamente; R^2 = 1 - SRC/STC
    scalar SEC = STC - SRC
    scalar s   = sqrt(SRC/(n-k))                     # raiz de la cuasivarianza de los residuos
    scalar Lx  = sqrt(sum((rooms - mean(rooms))^2))  # longitud euclidea de x - xbar
    scalar ee  = s/Lx                                # error estandar: ruido por unidad de longitud
    scalar b2  = $coeff(rooms)
    scalar tst = b2/ee
    scalar tc  = critical(t, n-k, 0.025)             # valor critico al 5%, dos colas
    scalar p   = 2*pvalue(t, n-k, abs(tst))          # valor p bilateral
    
    printf "n - k                        = %d\n", n-k
    printf "s  (D.T. de la regresion)    = %.4f   Gretl: %.4f\n", s, $sigma
    printf "||x - xbar||                 = %.4f\n", Lx
    printf "ee(b2) = s/||x - xbar||      = %.4f   Gretl: %.4f\n", ee, $stderr(rooms)
    printf "t = b2/ee                    = %.4f\n", tst
    printf "valor critico t_c (5%%)       = %.4f\n", tc
    printf "valor p                      = %.3g\n", p
    printf "IC 95%%: [%.2f ; %.2f]\n", b2 - tc*ee, b2 + tc*ee
end outfile

outfile --quiet identidad.txt
    printf "sqrt((n-k)*SEC/SRC)   = %.4f    t   = %.4f\n", sqrt((n-k)*SEC/SRC), tst
    printf "(n-k)*R2/(1-R2)       = %.4f    t^2 = %.4f\n", (n-k)*$rsq/(1-$rsq), tst^2
    printf "F(1, %d) del pie de la tabla = %.4f\n", n-k, $Fstat
end outfile

outfile --quiet restriccionCero.txt
    restrict
        b[2] = 0
    end restrict
end outfile

outfile --quiet contrasteC.txt
    scalar c    = 10000
    scalar t_c0 = (b2 - c)/ee
    scalar p_c0 = 2*pvalue(t, n-k, abs(t_c0))
    scalar tc1  = critical(t, n-k, 0.005)            # valor critico al 1%, dos colas
    
    printf "H0: beta_2 = %d\n", c
    printf "t = (b2 - c)/ee        = %.4f\n", t_c0
    printf "valor p                = %.4f\n", p_c0
    printf "t_c al 5%%              = %.4f   ->  %s\n", tc,  (abs(t_c0) > tc  ? "se rechaza" : "no se rechaza")
    printf "t_c al 1%%              = %.4f   ->  %s\n", tc1, (abs(t_c0) > tc1 ? "se rechaza" : "no se rechaza")
    printf "IC 95%%: [%.2f ; %.2f]   ¿contiene a %d?  %s\n", b2 - tc*ee,  b2 + tc*ee,  c, (b2 - tc*ee  <= c && c <= b2 + tc*ee  ? "si" : "no")
    printf "IC 99%%: [%.2f ; %.2f]   ¿contiene a %d?  %s\n", b2 - tc1*ee, b2 + tc1*ee, c, (b2 - tc1*ee <= c && c <= b2 + tc1*ee ? "si" : "no")
end outfile

outfile --quiet doceViviendas.txt
    set seed 20261107                                # para que todos obtengamos las mismas doce
    smpl 12 --random
    ols price const rooms
    scalar tc12 = critical(t, $df, 0.025)
    printf "\nn = %d,  grados de libertad = %d,  t_c al 5%% = %.3f  (con 506 viviendas era %.3f)\n", $nobs, $df, tc12, tc
    printf "IC 95%% con 12 viviendas : [%.1f ; %.1f]\n", $coeff(rooms) - tc12*$stderr(rooms), $coeff(rooms) + tc12*$stderr(rooms)
    printf "IC 95%% con 506 viviendas: [%.1f ; %.1f]\n", b2 - tc*ee, b2 + tc*ee
    smpl full
end outfile
