# ------------------------------------------------------------
# Copyright (C) 2026 Marcos Bujosa
# Licencia: GNU General Public License v3.0 o posterior
# Este código es software libre y puede ser redistribuido y/o modificado bajo los términos de la GPL.
# Ver el archivo LICENSE del repositorio para más detalles.
# ------------------------------------------------------------

# Los dos primeros comandos son necesarios para que Gretl guarde los resultados de la práctica en el directorio de trabajo
# al ejecutar lo siguiente desde un terminal (use los nombres y ruta que correspondan)
#
#    DIRECTORIO="Nombre_Directorio_trabajo" gretlcli -b ruta/nombre_fichero_de_la_practica.inp
#
# Si esto no le funciona en su sistema, comente las siguientes dos líneas y sitúese en el directorio de trabajo de gretl
# que corresponda (configure dicho directorio de trabajo desde la ventana principal de Gretl).

string directory = getenv("DIRECTORIO")
set workdir "@directory"

set verbose off

open hprice2.gdt --quiet
outfile --quiet completo.txt
    ols price const rooms nox stratio
    scalar n   = $nobs
    scalar k   = 4
    scalar SRC = $ess
    scalar s2  = SRC/(n-k)
    printf "\nSRC = %.4e    n-k = %d    s^2 = SRC/(n-k) = %.4e\n", SRC, n-k, s2
end outfile

outfile --quiet dosExclusiones.txt
    ols price const rooms --quiet
    scalar SRCr = $ess
    scalar q    = 2
    scalar F    = ((SRCr - SRC)/q)/s2
    printf "Modelo restringido (price ~ rooms):  SRC_r = %.4e\n", SRCr
    printf "Aumento de la SRC:                  SRC_r - SRC = %.4e\n", SRCr - SRC
    printf "F = ((SRC_r - SRC)/%d)/(SRC/(n-k)) = %.3f\n", q, F
    printf "F_c(%d,%d) al 5%% = %.3f    valor p = %.3g\n", q, n-k, critical(F, q, n-k, 0.05), pvalue(F, q, n-k, F)
end outfile

outfile --quiet restrictDos.txt
    ols price const rooms nox stratio --quiet
    restrict
        b[nox] = 0
        b[stratio] = 0
    end restrict
end outfile

outfile --quiet unaExclusion.txt
    ols price const rooms nox --quiet
    scalar SRCr1 = $ess
    scalar F1 = ((SRCr1 - SRC)/1)/s2
    ols price const rooms nox stratio --quiet
    scalar t_st = $coeff(stratio)/$stderr(stratio)
    printf "Modelo restringido (price ~ rooms + nox): SRC_r = %.4e\n", SRCr1
    printf "F = (SRC_r - SRC)/(SRC/(n-k)) = %.3f\n", F1
    printf "t de stratio en el modelo completo = %.3f ;  t^2 = %.3f\n", t_st, t_st^2
    printf "F_c(1,%d) al 5%% = %.3f ;  t_c^2 = %.3f\n", n-k, critical(F, 1, n-k, 0.05), critical(t, n-k, 0.025)^2
end outfile

outfile --quiet igualdad.txt
    series nox_mas_stratio = nox + stratio
    ols price const rooms nox_mas_stratio --quiet
    scalar SRCr2 = $ess
    scalar F2 = ((SRCr2 - SRC)/1)/s2
    printf "Modelo restringido (price ~ rooms + (nox + stratio)): SRC_r = %.4e\n", SRCr2
    printf "Aumento de la SRC = %.4e\n", SRCr2 - SRC
    printf "F = %.3f    F_c(1,%d) al 5%% = %.3f    valor p = %.4f\n", F2, n-k, critical(F, 1, n-k, 0.05), pvalue(F, 1, n-k, F2)
end outfile

outfile --quiet restrictIgualdad.txt
    ols price const rooms nox stratio --quiet
    restrict
        b[nox] - b[stratio] = 0
    end restrict
end outfile

outfile --quiet apertura.txt
    ols price const rooms nox lnox
    restrict
        b[nox] = 0
        b[lnox] = 0
    end restrict
end outfile

outfile --quiet elipse.txt
    ols price const rooms nox lnox --quiet
    scalar tc = critical(t, $df, 0.025)
    scalar Fc = critical(F, 2, $df, 0.05)
    scalar gl = $df
    matrix b = $coeff[3:4]
    matrix V = $vcv[3:4,3:4]
    scalar corrEst = V[1,2]/sqrt(V[1,1]*V[2,2])
    scalar iL = b[1] - tc*sqrt(V[1,1])
    scalar iR = b[1] + tc*sqrt(V[1,1])
    scalar jL = b[2] - tc*sqrt(V[2,2])
    scalar jR = b[2] + tc*sqrt(V[2,2])
    restrict --quiet
        b[nox] = 0
        b[lnox] = 0
    end restrict
    printf "IC 95%% nox: [%.1f ; %.1f]    IC 95%% lnox: [%.1f ; %.1f]\n", iL, iR, jL, jR
    printf "Correlacion entre los estimadores de nox y lnox: %.3f\n", corrEst
    printf "El par (0,0): F = %.3f    F_c(2,%d) = %.3f    valor p = %.3g\n", $test, gl, Fc, $pvalue
end outfile

matrix L = cholesky(V)
matrix th = seq(0, 360)' * $pi/180
matrix E = ones(rows(th), 1)*b' + sqrt(2*Fc) * (L * (cos(th) ~ sin(th))')'
matrix EP = E[,2] ~ E[,1]
set force_decpoint on
string rect = sprintf("set object 1 rect from %g,%g to %g,%g fs empty border lc rgb 'gray40' dt 2", iL, jL, iR, jR)
string est  = sprintf("set label 'estimacion' at %g,%g point pt 7 lc rgb 'red' offset 1,1", b[1], b[2])
plot EP
    options with-lines fit=none
    literal set title "Elipse de confianza al 95% y rectangulo de los dos intervalos"
    literal set xlabel "coeficiente de nox"
    literal set ylabel "coeficiente de lnox"
    literal set key off
    literal @rect
    literal @est
    literal set label "(0,0)" at 0,0 point pt 7 lc rgb "black" offset 1,1
end plot --output="elipse_nox_lnox.png"
