# ------------------------------------------------------------
# Copyright (C) 2026 Marcos Bujosa
# Licencia: GNU General Public License v3.0 o posterior
# Este código es software libre y puede ser redistribuido y/o modificado bajo los términos de la GPL.
# Ver el archivo LICENSE del repositorio para más detalles.
# ------------------------------------------------------------

# Los dos primeros comandos son necesarios para que Gretl guarde los resultados de la práctica en el directorio de trabajo
# al ejecutar lo siguiente desde un terminal (use los nombres y ruta que correspondan)
#
#    DIRECTORIO="Nombre_Directorio_trabajo" gretlcli -b ruta/nombre_fichero_de_la_practica.inp
#
# Si esto no le funciona en su sistema, comente las siguientes dos líneas y sitúese en el directorio de trabajo de gretl
# que corresponda (configure dicho directorio de trabajo desde la ventana principal de Gretl).

string directory = getenv("DIRECTORIO")
set workdir "@directory"

set verbose off

open hprice2.gdt --quiet
scalar b1  = 20000
scalar sig = 5000
scalar R   = 2000
set seed 20261119
loop R --progressive --quiet
    series u = normal(0, sig)
    series y = b1 + u                       # H0 cierta: rooms, nox y stratio no intervienen
    ols y const rooms nox stratio --quiet
    scalar Fst   = $Fstat
    scalar SRC   = $ess
    scalar SEC   = $ess*$rsq/(1-$rsq)      # SEC = STC - SRC, con STC = SRC/(1-R^2)
    scalar numer = SEC/3
    scalar denom = SRC/502
    store "@workdir/replicasF.gdt" Fst numer denom
endloop
open "@workdir/replicasF.gdt" --quiet
outfile --quiet bajoH0.txt
    scalar sig = 5000
    scalar Fc506 = critical(F, 3, 502, 0.05)
    printf "H0 cierta, n = 506, k = 4, %d replicas, sigma^2 = %.3e\n", $nobs, sig^2
    printf "media de SEC/(k-1) = %.4e\n", mean(numer)
    printf "media de SRC/(n-k) = %.4e\n", mean(denom)
    printf "media de F         = %.3f    mediana = %.3f\n", mean(Fst), median(Fst)
    printf "fraccion de F > F_c(3,502) = %.4f\n", mean(Fst > critical(F, 3, 502, 0.05))
    printf "cuantil empirico 95%% de F  = %.3f   (F_c = %.3f)\n", quantile(Fst, 0.95), Fc506
end outfile

freq Fst --plot="@workdir/histF.png"

open hprice2.gdt --quiet
scalar b1  = 20000
scalar sig = 5000
scalar R   = 2000
set seed 20261119
smpl 20 --random
scalar Fc20 = critical(F, 3, 16, 0.05)
set seed 20261119
loop R --progressive --quiet
    series u = normal(0, sig)
    series y = b1 + u
    ols y const rooms nox stratio --quiet
    scalar F20 = $Fstat
    store "@workdir/replicasF20.gdt" F20
endloop
open "@workdir/replicasF20.gdt" --quiet
outfile --quiet n20.txt
    scalar Fc20 = critical(F, 3, 16, 0.05)
    printf "H0 cierta, n = 20 (n-k = 16), %d replicas\n", $nobs
    printf "media de F = %.3f    mediana = %.3f    cuantil 95%% = %.3f   (F_c(3,16) = %.3f)\n", mean(F20), median(F20), quantile(F20, 0.95), Fc20
    printf "fraccion de F > F_c(3,16)  = %.4f\n", mean(F20 > Fc20)
    printf "fraccion de F > F_c(3,502) = %.4f\n", mean(F20 > critical(F, 3, 502, 0.05))
end outfile

freq F20 --plot="@workdir/histF20.png"

open hprice2.gdt --quiet
outfile --quiet deteccion.txt
    scalar b1  = 20000
    scalar sig = 5000
    scalar R   = 2000
    scalar bn = -800                         # efecto pequeno de nox; rooms y stratio siguen sin intervenir
    set seed 20261119
    smpl 20 --random
    scalar Fc = critical(F, 3, $nobs-4, 0.05)
    set seed 20261119
    scalar rech = 0
    loop R --quiet
        series u = normal(0, sig)
        series y = b1 + bn*nox + u
        ols y const rooms nox stratio --quiet
        rech += ($Fstat > Fc)
    endloop
    printf "H0 falsa, n = %d: rechazos = %.3f\n", $nobs, rech/R
    smpl full                                # y lo mismo con n = 506
    scalar Fc = critical(F, 3, $nobs-4, 0.05)
    set seed 20261119
    scalar rech = 0
    loop R --quiet
        series u = normal(0, sig)
        series y = b1 + bn*nox + u
        ols y const rooms nox stratio --quiet
        rech += ($Fstat > Fc)
    endloop
    printf "H0 falsa, n = %d: rechazos = %.3f\n", $nobs, rech/R
end outfile
