# ------------------------------------------------------------
# Copyright (C) 2026 Marcos Bujosa
# Licencia: GNU General Public License v3.0 o posterior
# Este código es software libre y puede ser redistribuido y/o modificado bajo los términos de la GPL.
# Ver el archivo LICENSE del repositorio para más detalles.
# ------------------------------------------------------------

# Los dos primeros comandos son necesarios para que Gretl guarde los resultados de la práctica en el directorio de trabajo
# al ejecutar lo siguiente desde un terminal (use los nombres y ruta que correspondan)
#
#    DIRECTORIO="Nombre_Directorio_trabajo" gretlcli -b ruta/nombre_fichero_de_la_practica.inp
#
# Si esto no le funciona en su sistema, comente las siguientes dos líneas y sitúese en el directorio de trabajo de gretl
# que corresponda (configure dicho directorio de trabajo desde la ventana principal de Gretl).

string directory = getenv("DIRECTORIO")
set workdir "@directory"

set verbose off

open hprice1 --quiet
outfile --quiet descripcion.txt
    labels
    summary price assess bdrms lotsize sqrft colonial --simple
    corr assess bdrms lotsize sqrft colonial
end outfile

outfile --quiet conTasacion.txt
    ols price const assess bdrms lotsize sqrft colonial
    vif
end outfile

ols price const assess bdrms lotsize sqrft colonial --quiet
scalar df = $df
restrict --quiet
    b[bdrms] = 0
    b[lotsize] = 0
    b[sqrft] = 0
    b[colonial] = 0
end restrict
scalar Fcar = $test
outfile --quiet sinTasacion.txt
    printf "Omitir las cuatro caracteristicas: F(4,%d) = %.3f   F_c = %.3f   valor p = %.3f\n\n", df, Fcar, critical(F, 4, df, 0.05), pvalue(F, 4, df, Fcar)
    ols price const bdrms lotsize sqrft colonial
end outfile

outfile --quiet auxiliar.txt
    ols assess const bdrms lotsize sqrft colonial
    series otrosTasac = $uhat
    printf "||assess en desviaciones|| = %.2f    ||otrosTasac|| = %.2f\n\n", sqrt(sum((assess-mean(assess))^2)), sqrt(sum(otrosTasac^2))
    corr otrosTasac bdrms lotsize sqrft colonial
end outfile

outfile --quiet conOtros.txt
    ols price const bdrms lotsize sqrft colonial otrosTasac
    vif
end outfile

ols price const assess bdrms lotsize sqrft colonial --quiet
scalar df = $df
restrict --quiet
    b[assess] = 1
    b[bdrms] = 0
    b[lotsize] = 0
    b[sqrft] = 0
    b[colonial] = 0
end restrict
scalar Frac = $test
series dif = price - assess
outfile --quiet racionalidad.txt
    printf "Tasacion racional (coef. de assess = 1 y caracteristicas = 0): F(5,%d) = %.3f   F_c = %.3f   valor p = %.3f\n\n", df, Frac, critical(F, 5, df, 0.05), pvalue(F, 5, df, Frac)
    ols dif const
    printf "media(price - assess) = %.2f   ee = %.2f   t = %.2f   (%.1f%% del precio medio, %.1f)\n", $coeff(const), $stderr(const), $coeff(const)/$stderr(const), 100*$coeff(const)/mean(price), mean(price)
end outfile
